# Solution for model PD-Stages
# Objective value = 2.7955214206753489e+01
zigjg[101,102,5] 1
zigjg[101,203,5] 0
zigjg[101,303,5] 0
zigjg[101,304,5] 0
zigjg[101,405,5] 0
zigjg[101,505,5] 0
zigjg[101,506,5] 0
zigjg[101,607,5] 0
zigjg[101,707,5] 0
zigjg[102,101,5] 0
zigjg[102,203,5] 0
zigjg[102,303,5] 0
zigjg[102,304,5] 1
zigjg[102,405,5] 0
zigjg[102,505,5] 0
zigjg[102,506,5] 0
zigjg[102,607,5] 0
zigjg[102,707,5] 0
zigjg[203,101,5] 1
zigjg[203,102,5] 0
zigjg[203,303,5] 0
zigjg[203,304,5] 0
zigjg[203,405,5] 0
zigjg[203,505,5] 0
zigjg[203,506,5] 0
zigjg[203,607,5] 0
zigjg[203,707,5] 0
zigjg[303,101,5] 0
zigjg[303,102,5] 0
zigjg[303,203,5] 0
zigjg[303,304,5] 0
zigjg[303,405,5] 1
zigjg[303,505,5] 0
zigjg[303,506,5] 0
zigjg[303,607,5] 0
zigjg[303,707,5] 0
zigjg[304,101,5] 0
zigjg[304,102,5] 0
zigjg[304,203,5] 0
zigjg[304,303,5] 1
zigjg[304,405,5] 0
zigjg[304,505,5] 0
zigjg[304,506,5] 0
zigjg[304,607,5] 0
zigjg[304,707,5] 0
zigjg[405,101,5] 0
zigjg[405,102,5] 0
zigjg[405,203,5] 0
zigjg[405,303,5] 0
zigjg[405,304,5] 0
zigjg[405,505,5] 0
zigjg[405,506,5] 0
zigjg[405,607,5] 1
zigjg[405,707,5] 0
zigjg[505,101,5] 0
zigjg[505,102,5] 0
zigjg[505,203,5] 1
zigjg[505,303,5] 0
zigjg[505,304,5] 0
zigjg[505,405,5] 0
zigjg[505,506,5] 0
zigjg[505,607,5] 0
zigjg[505,707,5] 0
zigjg[506,101,5] 0
zigjg[506,102,5] 0
zigjg[506,203,5] 0
zigjg[506,303,5] 0
zigjg[506,304,5] 0
zigjg[506,405,5] 0
zigjg[506,505,5] 1
zigjg[506,607,5] 0
zigjg[506,707,5] 0
zigjg[607,101,5] 0
zigjg[607,102,5] 0
zigjg[607,203,5] 0
zigjg[607,303,5] 0
zigjg[607,304,5] 0
zigjg[607,405,5] 0
zigjg[607,505,5] 0
zigjg[607,506,5] 0
zigjg[607,707,5] 1
zigjg[707,101,5] 0
zigjg[707,102,5] 0
zigjg[707,203,5] 0
zigjg[707,303,5] 0
zigjg[707,304,5] 0
zigjg[707,405,5] 0
zigjg[707,505,5] 0
zigjg[707,506,5] 1
zigjg[707,607,5] 0
sig[101,5] 0
sig[102,5] 1
sig[203,5] 9
sig[303,5] 3
sig[304,5] 2
sig[405,5] 4
sig[505,5] 8
sig[506,5] 7
sig[607,5] 5
sig[707,5] 6
digjg[101,102,5] 0
digjg[101,203,5] 4.0910158262019722e+00
digjg[101,303,5] 2.3660184075359916e+00
digjg[101,304,5] 5.57451184639155
digjg[101,405,5] 4.0910158262019722e+00
digjg[101,505,5] 4.6026125744531869e+00
digjg[101,506,5] 3.8615306550667818e+00
digjg[101,607,5] 5.8503201695552765e+00
digjg[101,707,5] 5.8503201695553679e+00
digjg[102,101,5] 5.57451184639155
digjg[102,203,5] 6.1225100685369824e+00
digjg[102,303,5] 6.1225100685369824e+00
digjg[102,304,5] 0
digjg[102,405,5] 6.1225100685369824e+00
digjg[102,505,5] 5.3151779474108993e+00
digjg[102,506,5] 3.7326448810437687e+00
digjg[102,607,5] 7.1466372045060771e+00
digjg[102,707,5] 7.1466372045060771e+00
digjg[203,101,5] 0
digjg[203,102,5] 3.2921218314009426e+00
digjg[203,303,5] 6.1225100685369824e+00
digjg[203,304,5] 5.5745118463915775e+00
digjg[203,405,5] 2.5443402535374942e+00
digjg[203,505,5] 4.6108704459003427e+00
digjg[203,506,5] 5.1221240878129786e+00
digjg[203,607,5] 4.2799137008711634e+00
digjg[203,707,5] 5.1221240878129786e+00
digjg[303,101,5] 1.4248487751571139e+00
digjg[303,102,5] 6.1225100685369824e+00
digjg[303,203,5] 6.1225100685369824e+00
digjg[303,304,5] 6.1225100685369824e+00
digjg[303,405,5] 0
digjg[303,505,5] 4.6108704459010079e+00
digjg[303,506,5] 4.7114652875918663e+00
digjg[303,607,5] 1.6045248803217591e+00
digjg[303,707,5] 2.9176843459691937e+00
digjg[304,101,5] 5.57451184639155
digjg[304,102,5] 2.5657309747333712e+00
digjg[304,203,5] 6.1225100685369824e+00
digjg[304,303,5] 2.1904481133668355e-01
digjg[304,405,5] 6.1225100685369824e+00
digjg[304,505,5] 5.3151779474108993e+00
digjg[304,506,5] 3.7326448810437944e+00
digjg[304,607,5] 7.1466372045060771e+00
digjg[304,707,5] 6.9377767833794231e+00
digjg[405,101,5] 2.5443402535375359e+00
digjg[405,102,5] 6.1225100685369824e+00
digjg[405,203,5] 2.5443402535374942e+00
digjg[405,303,5] 6.1225100685369824e+00
digjg[405,304,5] 6.1225100685369824e+00
digjg[405,505,5] 4.6108704459003427e+00
digjg[405,506,5] 4.7114652875918663e+00
digjg[405,607,5] 0
digjg[405,707,5] 4.7114652875918663e+00
digjg[505,101,5] 4.6026125744531869e+00
digjg[505,102,5] 5.3151779474108993e+00
digjg[505,203,5] 1.6045248803216872e+00
digjg[505,303,5] 5.3151779474108993e+00
digjg[505,304,5] 5.3151779474108993e+00
digjg[505,405,5] 4.6108704459003427e+00
digjg[505,506,5] 3.3874444238656922e+00
digjg[505,607,5] 4.9387737106295617e+00
digjg[505,707,5] 2.1165229107119754e+00
digjg[506,101,5] 5.1221240878129786e+00
digjg[506,102,5] 3.8615306550667512e+00
digjg[506,203,5] 4.6108704459003835e+00
digjg[506,303,5] 4.7114652875918663e+00
digjg[506,304,5] 3.7326448810437944e+00
digjg[506,405,5] 4.7114652875918663e+00
digjg[506,505,5] 0
digjg[506,607,5] 3.3874444238657206e+00
digjg[506,707,5] 4.9387737106295617e+00
digjg[607,101,5] 4.2799137008711181e+00
digjg[607,102,5] 5.8503201695552649e+00
digjg[607,203,5] 4.2799137008711634e+00
digjg[607,303,5] 7.1466372045060655e+00
digjg[607,304,5] 7.1466372045060771e+00
digjg[607,405,5] 2.9176843459691915e+00
digjg[607,505,5] 4.9387737106295617e+00
digjg[607,506,5] 4.1508528995105021e+00
digjg[607,707,5] 0
digjg[707,101,5] 5.8503201695552765e+00
digjg[707,102,5] 3.8615306550667539e+00
digjg[707,203,5] 4.7114652875919543e+00
digjg[707,303,5] 7.1466372045060771e+00
digjg[707,304,5] 7.1466372045060771e+00
digjg[707,405,5] 4.7114652875918663e+00
digjg[707,505,5] 4.9387737106295617e+00
digjg[707,506,5] 0
digjg[707,607,5] 4.1508528995104719e+00
difigjg[101,102,5,0] 0
difigjg[101,102,5,1] 0
difigjg[101,203,5,0] 3.9274347383261556e+00
difigjg[101,203,5,1] 1.1452802567164895e+00
difigjg[101,303,5,0] 2.1899805265989016e+00
difigjg[101,303,5,1] 8.9556038206072230e-01
difigjg[101,304,5,0] 2.1899805265989016e+00
difigjg[101,304,5,1] 5.1263210611128249e+00
difigjg[101,405,5,0] 3.9274347383260770e+00
difigjg[101,405,5,1] 1.1452802567164895e+00
difigjg[101,505,5,0] 3.8503223634568995e+00
difigjg[101,505,5,1] 2.5217179786867376e+00
difigjg[101,506,5,0] 0.0772290123327366
difigjg[101,506,5,1] 3.8607583037111510e+00
difigjg[101,607,5,0] 5.34108482962836
difigjg[101,607,5,1] 2.3872701834981314e+00
difigjg[101,707,5,0] 4.2238625814775332e+00
difigjg[101,707,5,1] 4.0478674606637384e+00
difigjg[102,101,5,0] 5.4795805901435415e+00
difigjg[102,101,5,1] 1.0243919570578015e+00
difigjg[102,203,5,0] 6.1174152649251070e+00
difigjg[102,203,5,1] 2.4971987465576717e-01
difigjg[102,303,5,0] 0
difigjg[102,303,5,1] 0
difigjg[102,304,5,0] 0
difigjg[102,304,5,1] 0
difigjg[102,405,5,0] 6.1174152649250990e+00
difigjg[102,405,5,1] 2.4971987465576717e-01
difigjg[102,505,5,0] 5.0603090898929688e+00
difigjg[102,505,5,1] 1.6261575966260153e+00
difigjg[102,506,5,0] 2.2672095389315530e+00
difigjg[102,506,5,1] 2.9651979216504287e+00
difigjg[102,607,5,0] 6.9892220741028117e+00
difigjg[102,607,5,1] 1.4917098014374091e+00
difigjg[102,707,5,0] 6.4138431080766622e+00
difigjg[102,707,5,1] 3.1523070786030161e+00
difigjg[203,101,5,0] 0
difigjg[203,101,5,1] 0
difigjg[203,102,5,0] 3.2896000635442704e+00
difigjg[203,102,5,1] 1.2883157499709341e-01
difigjg[203,303,5,0] 5.4795805901430867e+00
difigjg[203,303,5,1] 2.7311768241408112e+00
difigjg[203,304,5,0] 5.4795805901433141e+00
difigjg[203,304,5,1] 1.0243919570577873e+00
difigjg[203,405,5,0] 0.6378346747818
difigjg[203,405,5,1] 1.2741118317135545e+00
difigjg[203,505,5,0] 3.7627954467367317e+00
difigjg[203,505,5,1] 2.6648636310904106e+00
difigjg[203,506,5,0] 3.2123710512117256e+00
difigjg[203,506,5,1] 3.9895898787081876e+00
difigjg[203,607,5,0] 3.7802019346673887e-01
difigjg[203,607,5,1] 4.2631868387754581e+00
difigjg[203,707,5,0] 2.9650194495997284e+00
difigjg[203,707,5,1] 4.1766990356608034e+00
difigjg[303,101,5,0] 6.3783467478197053e-01
difigjg[303,101,5,1] 1.2741118317135687e+00
difigjg[303,102,5,0] 3.9274347383263830e+00
difigjg[303,102,5,1] 1.1452802567164611e+00
difigjg[303,203,5,0] 0
difigjg[303,203,5,1] 0
difigjg[303,304,5,0] 6.1174152649251
difigjg[303,304,5,1] 2.4971987465576717e-01
difigjg[303,405,5,0] 0
difigjg[303,405,5,1] 0
difigjg[303,505,5,0] 4.4006301215190433e+00
difigjg[303,505,5,1] 1.3764377219702482e+00
difigjg[303,506,5,0] 3.8502057259936464e+00
difigjg[303,506,5,1] 2.7154780469946616e+00
difigjg[303,607,5,0] 1.0158548682486526e+00
difigjg[303,607,5,1] 1.2419899267816419e+00
difigjg[303,707,5,0] 2.9642784315137760e-01
difigjg[303,707,5,1] 2.9025872039472489e+00
difigjg[304,101,5,0] 5.44926573457468
difigjg[304,101,5,1] 1.1750256512598867e+00
difigjg[304,102,5,0] 2.0309518513714977e+00
difigjg[304,102,5,1] 1.0461940762627790e+00
difigjg[304,203,5,0] 5.9583865896975965e+00
difigjg[304,203,5,1] 0.099086180453682
difigjg[304,303,5,0] 1.5902867522731867e-01
difigjg[304,303,5,1] 1.5063369420208517e-01
difigjg[304,405,5,0] 6.1217082148875441e+00
difigjg[304,405,5,1] 0.099086180453682
difigjg[304,505,5,0] 1.5577564681789227e+00
difigjg[304,505,5,1] 1.4755239024239302e+00
difigjg[304,506,5,0] 2.1081808637040496e+00
difigjg[304,506,5,1] 2.8145642274483436e+00
difigjg[304,607,5,0] 7.0196822021102872e+00
difigjg[304,607,5,1] 1.3410761072353239e+00
difigjg[304,707,5,0] 6.2548144328491162e+00
difigjg[304,707,5,1] 3.0016733844009309e+00
difigjg[405,101,5,0] 3.7802019346690940e-01
difigjg[405,101,5,1] 2.5161017584952106e+00
difigjg[405,102,5,0] 5.6379136753166277e+00
difigjg[405,102,5,1] 2.3872701834981029e+00
difigjg[405,203,5,0] 1.0158548682485531e+00
difigjg[405,203,5,1] 2.3327464955394976e+00
difigjg[405,303,5,0] 5.1015603966763621e+00
difigjg[405,303,5,1] 1.4917098014374091e+00
difigjg[405,304,5,0] 5.9380073743399979e+00
difigjg[405,304,5,1] 1.4917098014374091e+00
difigjg[405,505,5,0] 4.6089098558385970e+00
difigjg[405,505,5,1] 1.3444779518860628e-01
difigjg[405,506,5,0] 4.4751243619084669e+00
difigjg[405,506,5,1] 1.4734881202130197e+00
difigjg[405,607,5,0] 0
difigjg[405,607,5,1] 0
difigjg[405,707,5,0] 4.4091180341753295e+00
difigjg[405,707,5,1] 1.6605972771656070e+00
difigjg[505,101,5,0] 3.8539946096855506e+00
difigjg[505,101,5,1] 2.5161017584951963e+00
difigjg[505,102,5,0] 2.9115798700777304e+00
difigjg[505,102,5,1] 4.4467772037502709e+00
difigjg[505,203,5,0] 1.0158548682483897e+00
difigjg[505,203,5,1] 1.2419899267816277e+00
difigjg[505,303,5,0] 5.1015603966761773e+00
difigjg[505,303,5,1] 1.4917098014373948e+00
difigjg[505,304,5,0] 5.1015603966766321e+00
difigjg[505,304,5,1] 1.4917098014373948e+00
difigjg[505,405,5,0] 4.4404490264814145e+00
difigjg[505,405,5,1] 1.2419899267816277e+00
difigjg[505,506,5,0] 3.0501825045570423e+00
difigjg[505,506,5,1] 1.4734881202130339e+00
difigjg[505,607,5,0] 0
difigjg[505,607,5,1] 0
difigjg[505,707,5,0] 1.3122827113998028e+00
difigjg[505,707,5,1] 1.6605972771656212e+00
difigjg[506,101,5,0] 4.3830060728309821e+00
difigjg[506,101,5,1] 2.6505495536838168e+00
difigjg[506,102,5,0] 4.7319538319229082e-01
difigjg[506,102,5,1] 3.8324281237926594e+00
difigjg[506,203,5,0] 4.40063012151839
difigjg[506,203,5,1] 1.3764377219702482e+00
difigjg[506,303,5,0] 1.7167851434064687e+00
difigjg[506,303,5,1] 4.3875453204762849e+00
difigjg[506,304,5,0] 1.7167851434067529e+00
difigjg[506,304,5,1] 1.6261575966260153e+00
difigjg[506,405,5,0] 4.5059210329021973e+00
difigjg[506,405,5,1] 1.3764377219702482e+00
difigjg[506,505,5,0] 0
difigjg[506,505,5,1] 0
difigjg[506,607,5,0] 3.3847752532698365e+00
difigjg[506,607,5,1] 1.3444779518860628e-01
difigjg[506,707,5,0] 4.6970579646699662e+00
difigjg[506,707,5,1] 1.5261494819770007e+00
difigjg[607,101,5,0] 9.3426251793289339e-01
difigjg[607,101,5,1] 4.1766990356608176e+00
difigjg[607,102,5,0] 4.2238625814774196e+00
difigjg[607,102,5,1] 4.04786746066371
difigjg[607,203,5,0] 2.9642784315132786e-01
difigjg[607,203,5,1] 2.9025872039472489e+00
difigjg[607,303,5,0] 6.4138431080764349e+00
difigjg[607,303,5,1] 3.1523070786030161e+00
difigjg[607,304,5,0] 6.4138431080764775e+00
difigjg[607,304,5,1] 3.1523070786030161e+00
difigjg[607,405,5,0] 2.9642784315136339e-01
difigjg[607,405,5,1] 2.9025872039472489e+00
difigjg[607,505,5,0] 4.6970579680682372e+00
difigjg[607,505,5,1] 1.5261494819770007e+00
difigjg[607,506,5,0] 4.1466335691448819e+00
difigjg[607,506,5,1] 1.8710915695258734e-01
difigjg[607,707,5,0] 0
difigjg[607,707,5,1] 0
difigjg[707,101,5,0] 3.2123710512114485e+00
difigjg[707,101,5,1] 4.88947014671876
difigjg[707,102,5,0] 0.0772290123327366
difigjg[707,102,5,1] 3.8607583037111226e+00
difigjg[707,203,5,0] 3.8502057259936109e+00
difigjg[707,203,5,1] 2.7154780469946616e+00
difigjg[707,303,5,0] 2.2672095389314109e+00
difigjg[707,303,5,1] 2.9651979216504287e+00
difigjg[707,304,5,0] 2.2672095389316382e+00
difigjg[707,304,5,1] 2.9651979216504287e+00
difigjg[707,405,5,0] 3.8502057259934190e+00
difigjg[707,405,5,1] 2.7154780469947815e+00
difigjg[707,505,5,0] 2.4288302597820293e+00
difigjg[707,505,5,1] 4.3002649793514989e+00
difigjg[707,506,5,0] 0
difigjg[707,506,5,1] 0
difigjg[707,607,5,0] 2.8343508577449938e+00
difigjg[707,607,5,1] 1.4734881202130197e+00
pigjg[101,102,5] 0
pigjg[101,203,5] 0
pigjg[101,303,5] 0
pigjg[101,304,5] 0
pigjg[101,405,5] 0
pigjg[101,505,5] 0
pigjg[101,506,5] 0
pigjg[101,607,5] 0
pigjg[101,707,5] 0
pigjg[102,101,5] 0
pigjg[102,203,5] 0
pigjg[102,303,5] 0
pigjg[102,304,5] 0
pigjg[102,405,5] 0
pigjg[102,505,5] 0
pigjg[102,506,5] 0
pigjg[102,607,5] 0
pigjg[102,707,5] 0
pigjg[203,101,5] 0
pigjg[203,102,5] 0
pigjg[203,303,5] 0
pigjg[203,304,5] 0
pigjg[203,405,5] 0
pigjg[203,505,5] 0
pigjg[203,506,5] 0
pigjg[203,607,5] 0
pigjg[203,707,5] 0
pigjg[303,101,5] 0
pigjg[303,102,5] 0
pigjg[303,203,5] 0
pigjg[303,304,5] 0
pigjg[303,405,5] 0
pigjg[303,505,5] 0
pigjg[303,506,5] 0
pigjg[303,607,5] 0
pigjg[303,707,5] 0
pigjg[304,101,5] 0
pigjg[304,102,5] 0
pigjg[304,203,5] 0
pigjg[304,303,5] 2.1904481133668341e-01
pigjg[304,405,5] 0
pigjg[304,505,5] 0
pigjg[304,506,5] 0
pigjg[304,607,5] 0
pigjg[304,707,5] 0
pigjg[405,101,5] 0
pigjg[405,102,5] 0
pigjg[405,203,5] 0
pigjg[405,303,5] 0
pigjg[405,304,5] 0
pigjg[405,505,5] 0
pigjg[405,506,5] 0
pigjg[405,607,5] 0
pigjg[405,707,5] 0
pigjg[505,101,5] 0
pigjg[505,102,5] 0
pigjg[505,203,5] 1.6045248803216872e+00
pigjg[505,303,5] 0
pigjg[505,304,5] 0
pigjg[505,405,5] 0
pigjg[505,506,5] 0
pigjg[505,607,5] 0
pigjg[505,707,5] 0
pigjg[506,101,5] 0
pigjg[506,102,5] 0
pigjg[506,203,5] 0
pigjg[506,303,5] 0
pigjg[506,304,5] 0
pigjg[506,405,5] 0
pigjg[506,505,5] 0
pigjg[506,607,5] 0
pigjg[506,707,5] 0
pigjg[607,101,5] 0
pigjg[607,102,5] 0
pigjg[607,203,5] 0
pigjg[607,303,5] 0
pigjg[607,304,5] 0
pigjg[607,405,5] 0
pigjg[607,505,5] 0
pigjg[607,506,5] 0
pigjg[607,707,5] 0
pigjg[707,101,5] 0
pigjg[707,102,5] 0
pigjg[707,203,5] 0
pigjg[707,303,5] 0
pigjg[707,304,5] 0
pigjg[707,405,5] 0
pigjg[707,505,5] 0
pigjg[707,506,5] 0
pigjg[707,607,5] 0
Rig[101,5,0] 8.9752063314475436e+01
Rig[101,5,1] 8.0584942121825250e+01
Rig[102,5,0] 8.6462463250931165e+01
Rig[102,5,1] 8.0713773696822358e+01
Rig[203,5,0] 9.0389897989257264e+01
Rig[203,5,1] 8.1859053953538819e+01
Rig[303,5,0] 8.4272482724332349e+01
Rig[303,5,1] 8.1609334078883052e+01
Rig[304,5,0] 8.4272482724332136e+01
Rig[304,5,1] 8.1609334078883037e+01
Rig[405,5,0] 9.0389897989257250e+01
Rig[405,5,1] 8.1859053953538819e+01
Rig[505,5,0] 8.5989267867738818e+01
Rig[505,5,1] 8.3235491675509067e+01
Rig[506,5,0] 8.6539692263263731e+01
Rig[506,5,1] 8.4574532000533480e+01
Rig[607,5,0] 8.9374043121008711e+01
Rig[607,5,1] 8.3101043880320461e+01
Rig[707,5,0] 9.0686325832408784e+01
Rig[707,5,1] 8.4761641157486068e+01
rhoig[101,5] -1.1368683772161603e-13
rhoig[102,5] 1
rhoig[203,5] -2.8421709430404007e-14
rhoig[303,5] 9.9999999999988631e-01
rhoig[304,5] 1.0000000000000142e+00
rhoig[405,5] 1
rhoig[505,5] 1.0000000000001137e+00
rhoig[506,5] 2.1316282072803006e-14
rhoig[607,5] 1
rhoig[707,5] 0
Lig[101,5,0] 8.6462463250931251e+01
Lig[101,5,1] 8.0713773696822344e+01
Lig[102,5,0] 8.4272482724332150e+01
Lig[102,5,1] 8.1609334078883052e+01
Lig[203,5,0] 8.9752063314475450e+01
Lig[203,5,1] 8.0584942121825264e+01
Lig[303,5,0] 90.3898979892574
Lig[303,5,1] 8.1859053953538819e+01
Lig[304,5,0] 8.4431511399559682e+01
Lig[304,5,1] 8.1759967773085137e+01
Lig[405,5,0] 8.9374043121008711e+01
Lig[405,5,1] 8.3101043880320461e+01
Lig[505,5,0] 8.9374043121008526e+01
Lig[505,5,1] 8.3101043880320461e+01
Lig[506,5,0] 8.5989267867738874e+01
Lig[506,5,1] 8.3235491675509067e+01
Lig[607,5,0] 90.6863258324086
Lig[607,5,1] 8.4761641157486068e+01
Lig[707,5,0] 8.6539692263263760e+01
Lig[707,5,1] 8.4574532000533480e+01
landaig[101,5] 9.9999999999988631e-01
landaig[102,5] 0
landaig[203,5] 9.9999999999997158e-01
landaig[303,5] -1.1368683772161603e-13
landaig[304,5] 9.0736832978881665e-01
landaig[405,5] 0
landaig[505,5] 1.1368683772161603e-13
landaig[506,5] 1.0000000000000213e+00
landaig[607,5] 0
landaig[707,5] 1
minig[101,5] 1
minig[102,5] 0
minig[203,5] 1
minig[303,5] 0
minig[304,5] 0
minig[405,5] 0
minig[505,5] 0
minig[506,5] 1
minig[607,5] 0
minig[707,5] 1
maxig[101,5] 0
maxig[102,5] 1
maxig[203,5] 0
maxig[303,5] 1.0000000000000002e+00
maxig[304,5] 9.2631670211204664e-02
maxig[405,5] 1
maxig[505,5] 1
maxig[506,5] 0
maxig[607,5] 1
maxig[707,5] 0
entryig[101,5] 1
entryig[102,5] 0
entryig[203,5] 1
entryig[303,5] 0
entryig[304,5] 0
entryig[405,5] 0
entryig[505,5] 0
entryig[506,5] 1
entryig[607,5] 0
entryig[707,5] 1
muig[101,5] 1
muig[102,5] 1
muig[203,5] 1
muig[303,5] 1
muig[304,5] 1
muig[405,5] 1
muig[505,5] 1
muig[506,5] 1
muig[607,5] 1
muig[707,5] 1
pig[101,5] 1
pig[102,5] 1
pig[203,5] 1
pig[303,5] 1.0000000000000002e+00
pig[304,5] 9.2631670211204664e-02
pig[405,5] 1
pig[505,5] 1
pig[506,5] 1
pig[607,5] 1
pig[707,5] 1
alphaig[101,5] 1
alphaig[102,5] 1
alphaig[203,5] 1
alphaig[303,5] 1.0000000000000002e+00
alphaig[304,5] 9.2631670211204664e-02
alphaig[405,5] 1
alphaig[505,5] 1
alphaig[506,5] 1
alphaig[607,5] 1
alphaig[707,5] 1
